<number of tasks>
25

<cycle time>
14

<task times>
1 4
2 3
3 9
4 5
5 9
6 4
7 8
8 7
9 5
10 1
11 3
12 1
13 5
14 3
15 5
16 3
17 13
18 5
19 2
20 3
21 7
22 5
23 3
24 8
25 4

<precedence relations>
1,3
2,3
3,4
4,5
4,8
5,6
6,7
6,10
7,11
7,12
8,9
8,11
9,10
9,13
11,13
12,15
13,14
14,16
14,19
14,20
15,17
15,22
16,18
17,18
17,23
18,25
19,22
20,21
20,25
21,22
21,24
23,25

<setup times forward>
1,3:2
2,3:2
4,5:2
4,8:1
5,8:1
5,9:1
6,7:1
6,8:1
6,9:1
6,10:1
7,11:2
8,5:1
8,6:1
8,11:2
8,17:1
8,23:1
9,5:1
9,6:1
9,11:2
9,13:2
9,17:1
9,23:1
10,11:2
10,13:2
10,14:2
10,16:2
10,17:1
10,18:1
10,19:2
10,20:2
10,21:2
10,22:1
10,23:1
10,24:1
10,25:1
11,9:2
11,10:2
11,12:2
11,15:2
11,17:1
11,23:3
12,11:2
12,13:2
12,14:2
12,16:2
12,19:2
12,20:2
12,21:2
12,24:1
13,10:2
13,12:2
13,15:2
13,17:1
13,23:3
14,10:2
14,12:2
14,15:2
14,17:1
14,23:3
15,11:2
15,13:2
15,14:2
15,16:2
15,17:1
15,19:2
15,20:2
15,21:2
15,22:1
15,24:1
16,10:2
16,12:2
16,15:2
16,17:1
16,18:3
16,22:3
16,23:3
16,24:1
17,8:1
17,9:1
17,10:1
17,11:1
17,13:1
17,14:1
17,16:1
17,18:2
17,19:1
17,20:1
17,21:1
17,22:2
17,23:2
18,10:1
18,19:3
18,20:3
18,21:3
18,24:2
18,25:2
19,10:2
19,12:2
19,15:2
19,17:1
19,18:3
19,22:3
19,23:3
19,24:1
19,25:1
20,10:2
20,12:2
20,15:2
20,17:1
20,18:3
20,23:3
20,25:1
21,10:2
21,12:2
21,15:2
21,17:1
21,18:3
21,22:3
21,23:3
21,24:1
21,25:1
22,10:1
22,16:3
22,17:2
22,24:2
22,25:2
23,8:1
23,9:1
23,10:1
23,11:3
23,13:3
23,14:3
23,16:3
23,19:3
23,20:3
23,21:3
23,24:2
23,25:2
24,10:1
24,12:1
24,15:1
24,16:1
24,18:2
24,19:1
24,22:2
24,23:2
25,10:1
25,19:1
25,21:1
25,22:2

<setup times backward>
3,1:2
3,2:2
4,1:2
4,2:2
7,1:1
7,2:1
7,5:1
7,6:1
8,1:1
8,2:1
8,5:1
8,6:1
8,17:1
9,1:1
9,2:1
9,5:1
9,6:1
9,11:2
9,17:1
10,1:1
10,2:1
10,5:1
10,6:1
10,11:2
10,13:2
10,14:2
10,16:2
10,17:1
10,19:2
10,20:2
10,21:2
10,24:1
10,25:1
12,1:1
12,2:1
12,5:1
12,6:1
12,11:2
12,13:2
12,14:2
12,16:2
12,19:2
12,20:2
12,21:2
12,24:1
15,1:1
15,2:1
15,5:1
15,6:1
15,11:2
15,13:2
15,14:2
15,16:2
15,19:2
15,20:2
15,21:2
15,24:1
17,11:1
17,13:1
17,14:1
17,16:1
17,19:1
17,20:1
17,21:1
18,1:2
18,2:2
18,5:2
18,6:2
18,7:1
18,8:1
18,9:1
18,10:1
18,11:3
18,12:1
18,13:3
18,14:3
18,15:1
18,16:3
18,17:2
18,19:3
18,20:3
18,21:3
18,24:2
22,1:2
22,2:2
22,5:2
22,6:2
22,7:1
22,8:1
22,9:1
22,10:1
22,11:3
22,12:1
22,13:3
22,14:3
22,15:1
22,16:3
22,17:2
22,19:3
22,20:3
22,21:3
22,24:2
22,25:2
23,1:2
23,2:2
23,5:2
23,6:2
23,7:1
23,8:1
23,9:1
23,10:1
23,11:3
23,12:1
23,13:3
23,14:3
23,15:1
23,16:3
23,17:2
23,19:3
23,20:3
23,21:3
23,24:2
24,11:1
24,13:1
24,14:1
24,16:1
24,19:1
24,20:1
24,21:1
25,11:1
25,13:1
25,14:1
25,16:1
25,19:1
25,20:1
25,21:1

<end>

<optimal SALBP-1 value>
10


<rand seed>
467321153

<Lower Bounds>
Lm1=9
Lms1=9
Lm2=6
Lm3=7
Lm4=10
Best=10

<Optimal Stations (Iterations: 10)>
12
